;(set-option :produce-unsat-cores true )
(set-logic ALL_SUPPORTED )
(declare-sort A$ 0 )
(declare-sort A_set$ 0 )
(declare-sort A_set_set$ 0 )
(declare-sort A_llist_set$ 0 )
(declare-sort A_set_set_set$ 0 )
(declare-sort A_llist_set_set$ 0 )
(declare-sort A_set_llist_set$ 0 )
(declare-sort A_llist_llist_set$ 0 )
(declare-sort A_set_set_set_set$ 0 )
(declare-sort A_llist_set_set_set$ 0 )
(declare-sort A_set_set_llist_set$ 0 )
(declare-sort A_llist_set_llist_set$ 0 )
(declare-sort A_llist$ 0)
(declare-sort A_set_set_llist$ 0)
(declare-sort A_llist_set_llist$ 0)
(declare-sort A_llist_llist$ 0)
(declare-sort A_set_llist$ 0)
(declare-fun lNil$ ()A_llist$)
(declare-fun lhd$ (A_llist$)A$)
(declare-fun ltl$ (A_llist$)A_llist$)
(declare-fun lCons$ (A$ A_llist$ )A_llist$)
(declare-fun lNil$a ()A_set_set_llist$)
(declare-fun lhd$a (A_set_set_llist$)A_set_set$)
(declare-fun ltl$a (A_set_set_llist$)A_set_set_llist$)
(declare-fun lCons$a (A_set_set$ A_set_set_llist$ )A_set_set_llist$)
(declare-fun lNil$b ()A_llist_set_llist$)
(declare-fun lhd$b (A_llist_set_llist$)A_llist_set$)
(declare-fun ltl$b (A_llist_set_llist$)A_llist_set_llist$)
(declare-fun lCons$b (A_llist_set$ A_llist_set_llist$ )A_llist_set_llist$)
(declare-fun lNil$c ()A_llist_llist$)
(declare-fun lhd$c (A_llist_llist$)A_llist$)
(declare-fun ltl$c (A_llist_llist$)A_llist_llist$)
(declare-fun lCons$c (A_llist$ A_llist_llist$ )A_llist_llist$)
(declare-fun lNil$d ()A_set_llist$)
(declare-fun lhd$d (A_set_llist$)A_set$)
(declare-fun ltl$d (A_set_llist$)A_set_llist$)
(declare-fun lCons$d (A_set$ A_set_llist$ )A_set_llist$)
(declare-fun p$ ()A_llist_set$ )
(declare-fun s$ ()A_llist$ )
(declare-fun t$ ()A_llist$ )
(declare-fun sup$ (A_set_set_set_set$ )A_set_set_set$ )
(declare-fun top$ ()A_set$ )
(declare-fun sup$a (A_llist_set_set_set$ )A_llist_set_set$ )
(declare-fun sup$b (A_llist_set_set$ )A_llist_set$ )
(declare-fun sup$c (A_set_set_set$ )A_set_set$ )
(declare-fun sup$d (A_set_set$ )A_set$ )
(declare-fun top$a ()A_set_set_set$ )
(declare-fun top$b ()A_llist_set_set$ )
(declare-fun top$c ()A_llist_set$ )
(declare-fun top$d ()A_set_set$ )
(declare-fun top$e ()A_set_llist_set$ )
(declare-fun top$f ()A_llist_llist_set$ )
(declare-fun top$g ()A_set_set_set_set$ )
(declare-fun top$h ()A_llist_set_set_set$ )
(declare-fun atMost$ (A_set_set_set$ )A_set_set_set_set$ )
(declare-fun member$ (A_llist$ A_llist_set$ )Bool )
(declare-fun safety$ (A_set_set_set$ A_set_set_llist_set$ )Bool )
(declare-fun alllsts$ (A_set_set_set$ )A_set_set_llist_set$ )
(declare-fun atMost$a (A_llist_set_set$ )A_llist_set_set_set$ )
(declare-fun atMost$b (A_llist_set$ )A_llist_set_set$ )
(declare-fun atMost$c (A_set_set$ )A_set_set_set$ )
(declare-fun atMost$d (A_set$ )A_set_set$ )
(declare-fun less_eq$ (A_llist$ A_llist$ )Bool )
(declare-fun member$a (A_set_set_llist$ A_set_set_llist_set$ )Bool )
(declare-fun member$b (A_llist_set_llist$ A_llist_set_llist_set$ )Bool )
(declare-fun member$c (A_llist_llist$ A_llist_llist_set$ )Bool )
(declare-fun member$d (A_set_llist$ A_set_llist_set$ )Bool )
(declare-fun member$e (A_set_set$ A_set_set_set$ )Bool )
(declare-fun member$f (A_llist_set$ A_llist_set_set$ )Bool )
(declare-fun member$g (A_set$ A_set_set$ )Bool )
(declare-fun member$h (A$ A_set$ )Bool )
(declare-fun poslsts$ (A_set$ )A_llist_set$ )
(declare-fun safety$a (A_llist_set_set$ A_llist_set_llist_set$ )Bool )
(declare-fun safety$b (A_llist_set$ A_llist_llist_set$ )Bool )
(declare-fun safety$c (A_set_set$ A_set_llist_set$ )Bool )
(declare-fun safety$d (A_set$ A_llist_set$ )Bool )
(declare-fun alllsts$a (A_llist_set_set$ )A_llist_set_llist_set$ )
(declare-fun alllsts$b (A_llist_set$ )A_llist_llist_set$ )
(declare-fun alllsts$c (A_set_set$ )A_set_llist_set$ )
(declare-fun alllsts$d (A_set$ )A_llist_set$ )
(declare-fun poslsts$a (A_set_set_set$ )A_set_set_llist_set$ )
(declare-fun poslsts$b (A_llist_set_set$ )A_llist_set_llist_set$ )
(declare-fun poslsts$c (A_llist_set$ )A_llist_llist_set$ )
(declare-fun poslsts$d (A_set_set$ )A_set_llist_set$ )
(declare-fun possafety$ (A_set$ A_llist_set$ )Bool )
(declare-fun prefix_closed$ (A_set_set_llist_set$ )Bool )
(declare-fun prefix_closed$a (A_llist_set_llist_set$ )Bool )
(declare-fun prefix_closed$b (A_llist_llist_set$ )Bool )
(declare-fun prefix_closed$c (A_set_llist_set$ )Bool )
(declare-fun prefix_closed$d (A_llist_set$ )Bool )
(assert (! (not (member$ s$ (poslsts$ top$ ))):named a0 ))
(assert (! (member$ t$ p$ ):named a1 ))
(assert (! (not (= s$ lNil$ )):named a2 ))
(assert (! (possafety$ top$ p$ ):named a3 ))
(assert (! (forall ((?v0 A_set_set_llist$ ))(= (member$a ?v0 (poslsts$a top$a ))(not (= ?v0 lNil$a )))):named a4 ))
(assert (! (forall ((?v0 A_llist_set_llist$ ))(= (member$b ?v0 (poslsts$b top$b ))(not (= ?v0 lNil$b )))):named a5 ))
(assert (! (forall ((?v0 A_llist_llist$ ))(= (member$c ?v0 (poslsts$c top$c ))(not (= ?v0 lNil$c )))):named a6 ))
(assert (! (forall ((?v0 A_set_llist$ ))(= (member$d ?v0 (poslsts$d top$d ))(not (= ?v0 lNil$d )))):named a7 ))
(assert (! (forall ((?v0 A_llist$ ))(= (member$ ?v0 (poslsts$ top$ ))(not (= ?v0 lNil$ )))):named a8 ))
(assert (! (less_eq$ s$ t$ ):named a9 ))
(assert (! (forall ((?v0 A_set_llist$ ))(= (member$d ?v0 top$e )true )):named a10 ))
(assert (! (forall ((?v0 A_llist_llist$ ))(= (member$c ?v0 top$f )true )):named a11 ))
(assert (! (forall ((?v0 A_set_set$ ))(= (member$e ?v0 top$a )true )):named a12 ))
(assert (! (forall ((?v0 A_llist_set$ ))(= (member$f ?v0 top$b )true )):named a13 ))
(assert (! (forall ((?v0 A_set$ ))(= (member$g ?v0 top$d )true )):named a14 ))
(assert (! (forall ((?v0 A_llist$ ))(= (member$ ?v0 top$c )true )):named a15 ))
(assert (! (forall ((?v0 A$ ))(= (member$h ?v0 top$ )true )):named a16 ))
(assert (! (forall ((?v0 A_set_llist$ ))(member$d ?v0 top$e )):named a17 ))
(assert (! (forall ((?v0 A_llist_llist$ ))(member$c ?v0 top$f )):named a18 ))
(assert (! (forall ((?v0 A_set_set$ ))(member$e ?v0 top$a )):named a19 ))
(assert (! (forall ((?v0 A_llist_set$ ))(member$f ?v0 top$b )):named a20 ))
(assert (! (forall ((?v0 A_set$ ))(member$g ?v0 top$d )):named a21 ))
(assert (! (forall ((?v0 A_llist$ ))(member$ ?v0 top$c )):named a22 ))
(assert (! (forall ((?v0 A$ ))(member$h ?v0 top$ )):named a23 ))
(assert (! (forall ((?v0 A_set_llist_set$ ))(=> (forall ((?v1 A_set_llist$ ))(member$d ?v1 ?v0 ))(= top$e ?v0 ))):named a24 ))
(assert (! (forall ((?v0 A_llist_llist_set$ ))(=> (forall ((?v1 A_llist_llist$ ))(member$c ?v1 ?v0 ))(= top$f ?v0 ))):named a25 ))
(assert (! (forall ((?v0 A_set_set_set$ ))(=> (forall ((?v1 A_set_set$ ))(member$e ?v1 ?v0 ))(= top$a ?v0 ))):named a26 ))
(assert (! (forall ((?v0 A_llist_set_set$ ))(=> (forall ((?v1 A_llist_set$ ))(member$f ?v1 ?v0 ))(= top$b ?v0 ))):named a27 ))
(assert (! (forall ((?v0 A_set_set$ ))(=> (forall ((?v1 A_set$ ))(member$g ?v1 ?v0 ))(= top$d ?v0 ))):named a28 ))
(assert (! (forall ((?v0 A_llist_set$ ))(=> (forall ((?v1 A_llist$ ))(member$ ?v1 ?v0 ))(= top$c ?v0 ))):named a29 ))
(assert (! (forall ((?v0 A_set$ ))(=> (forall ((?v1 A$ ))(member$h ?v1 ?v0 ))(= top$ ?v0 ))):named a30 ))
(assert (! (exists ((?v0 A_set_llist$ ))(member$d ?v0 top$e )):named a31 ))
(assert (! (exists ((?v0 A_llist_llist$ ))(member$c ?v0 top$f )):named a32 ))
(assert (! (exists ((?v0 A_set_set$ ))(member$e ?v0 top$a )):named a33 ))
(assert (! (exists ((?v0 A_llist_set$ ))(member$f ?v0 top$b )):named a34 ))
(assert (! (exists ((?v0 A_set$ ))(member$g ?v0 top$d )):named a35 ))
(assert (! (exists ((?v0 A_llist$ ))(member$ ?v0 top$c )):named a36 ))
(assert (! (exists ((?v0 A$ ))(member$h ?v0 top$ )):named a37 ))
(assert (! (forall ((?v0 A_set_set_llist_set$ ))(=> (safety$ top$a ?v0 )(prefix_closed$ ?v0 ))):named a38 ))
(assert (! (forall ((?v0 A_llist_set_llist_set$ ))(=> (safety$a top$b ?v0 )(prefix_closed$a ?v0 ))):named a39 ))
(assert (! (forall ((?v0 A_llist_llist_set$ ))(=> (safety$b top$c ?v0 )(prefix_closed$b ?v0 ))):named a40 ))
(assert (! (forall ((?v0 A_set_llist_set$ ))(=> (safety$c top$d ?v0 )(prefix_closed$c ?v0 ))):named a41 ))
(assert (! (forall ((?v0 A_llist_set$ ))(=> (safety$d top$ ?v0 )(prefix_closed$d ?v0 ))):named a42 ))
(assert (! (forall ((?v0 A_set_set_set$ ))(= (= (atMost$ ?v0 )top$g )(= ?v0 top$a ))):named a43 ))
(assert (! (forall ((?v0 A_llist_set_set$ ))(= (= (atMost$a ?v0 )top$h )(= ?v0 top$b ))):named a44 ))
(assert (! (forall ((?v0 A_llist_set$ ))(= (= (atMost$b ?v0 )top$b )(= ?v0 top$c ))):named a45 ))
(assert (! (forall ((?v0 A_set_set$ ))(= (= (atMost$c ?v0 )top$a )(= ?v0 top$d ))):named a46 ))
(assert (! (forall ((?v0 A_set$ ))(= (= (atMost$d ?v0 )top$d )(= ?v0 top$ ))):named a47 ))
(assert (! (= (sup$ top$g )top$a ):named a48 ))
(assert (! (= (sup$a top$h )top$b ):named a49 ))
(assert (! (= (sup$b top$b )top$c ):named a50 ))
(assert (! (= (sup$c top$a )top$d ):named a51 ))
(assert (! (= (sup$d top$d )top$ ):named a52 ))
(assert (! (forall ((?v0 A_set_set_llist$ ))(member$a ?v0 (alllsts$ top$a ))):named a53 ))
(assert (! (forall ((?v0 A_llist_set_llist$ ))(member$b ?v0 (alllsts$a top$b ))):named a54 ))
(assert (! (forall ((?v0 A_llist_llist$ ))(member$c ?v0 (alllsts$b top$c ))):named a55 ))
(assert (! (forall ((?v0 A_set_llist$ ))(member$d ?v0 (alllsts$c top$d ))):named a56 ))
(assert (! (forall ((?v0 A_llist$ ))(member$ ?v0 (alllsts$d top$ ))):named a57 ))
(assert (! (forall ((?v0 A_set_llist$ )(?v1 A_set_set$ ))(= (member$d ?v0 (poslsts$d ?v1 ))(and (member$d ?v0 (alllsts$c ?v1 ))(not (= ?v0 lNil$d ))))):named a58 ))
(assert (! (forall ((?v0 A_llist_llist$ )(?v1 A_llist_set$ ))(= (member$c ?v0 (poslsts$c ?v1 ))(and (member$c ?v0 (alllsts$b ?v1 ))(not (= ?v0 lNil$c ))))):named a59 ))
(assert (! (forall ((?v0 A_llist$ )(?v1 A_set$ ))(= (member$ ?v0 (poslsts$ ?v1 ))(and (member$ ?v0 (alllsts$d ?v1 ))(not (= ?v0 lNil$ ))))):named a60 ))
(assert (! (forall ((?v0 A_llist$ ))(less_eq$ ?v0 ?v0 )):named a61 ))
(check-sat )
;(get-unsat-core )
